SCIP Status        : solving was interrupted [time limit reached]
Total Time         :    3600.01
  solving          :    3600.01
  presolving       :       0.01 (included in solving)
  reading          :       0.00
  copying          :       0.60 (190 #copies) (minimal 0.00, maximal 0.00, average 0.00)
Original Problem   :
  Problem name     : sfacloc1_3_95
  Variables        : 233 (9 binary, 0 integer, 0 implicit integer, 224 continuous)
  Constraints      : 281 initial, 281 maximal
  Objective        : minimize, 15 non-zeros (abs.min = 1, abs.max = 1)
Presolved Problem  :
  Problem name     : t_sfacloc1_3_95
  Variables        : 313 (9 binary, 0 integer, 0 implicit integer, 304 continuous)
  Constraints      : 235 initial, 235 maximal
  Objective        : minimize, 15 non-zeros (abs.min = 1, abs.max = 1)
  Nonzeros         : 653 constraint, 20 clique table
Presolvers         :   ExecTime  SetupTime  Calls  FixedVars   AggrVars   ChgTypes  ChgBounds   AddHoles    DelCons    AddCons   ChgSides   ChgCoefs
  boundshift       :       0.00       0.00      0          0          0          0          0          0          0          0          0          0
  convertinttobin  :       0.00       0.00      0          0          0          0          0          0          0          0          0          0
  domcol           :       0.00       0.00      1          0          0          0          0          0          0          0          0          0
  dualagg          :       0.00       0.00      0          0          0          0          0          0          0          0          0          0
  dualcomp         :       0.00       0.00      1          0          0          0          0          0          0          0          0          0
  dualinfer        :       0.00       0.00      0          0          0          0          0          0          0          0          0          0
  dualsparsify     :       0.00       0.00      1          0          0          0          0          0          0          0          0          0
  gateextraction   :       0.00       0.00      0          0          0          0          0          0          0          0          0          0
  implics          :       0.00       0.00      2          0          0          0          0          0          0          0          0          0
  inttobinary      :       0.00       0.00      0          0          0          0          0          0          0          0          0          0
  qpkktref         :       0.00       0.00      0          0          0          0          0          0          0          0          0          0
  redvub           :       0.00       0.00      0          0          0          0          0          0          0          0          0          0
  sparsify         :       0.00       0.00      1          0          0          0          0          0          0          0          0          0
  stuffing         :       0.00       0.00      0          0          0          0          0          0          0          0          0          0
  trivial          :       0.00       0.00      3          0          0          0          0          0          0          0          0          0
  tworowbnd        :       0.00       0.00      0          0          0          0          0          0          0          0          0          0
  dualfix          :       0.00       0.00      3          0          0          0          0          0          0          0          0          0
  genvbounds       :       0.00       0.00      0          0          0          0          0          0          0          0          0          0
  probing          :       0.00       0.00      1          0          0          0          0          0          0          0          0          0
  pseudoobj        :       0.00       0.00      0          0          0          0          0          0          0          0          0          0
  symmetry         :       0.00       0.00      1          0          0          0          0          0          0          0          0          0
  vbounds          :       0.00       0.00      1          0          0          0          0          0          0          0          0          0
  setppc           :       0.00       0.00      3          0          0          0          0          0          0          0          0          0
  linear           :       0.00       0.00      5          0         46          0          8          0         46          0          0          0
  nonlinear        :       0.00       0.00      6          0          0          0          0          0          0          0          0          0
  benders          :       0.00       0.00      0          0          0          0          0          0          0          0          0          0
  components       :       0.00       0.00      1          0          0          0          0          0          0          0          0          0
  root node        :          -          -      -          0          -          -         54          -          -          -          -          -
Constraints        :     Number  MaxNumber  #Separate #Propagate    #EnfoLP    #EnfoRelax  #EnfoPS    #Check   #ResProp    Cutoffs    DomReds       Cuts    Applied      Conss   Children
  benderslp        :          0          0          0          0     774561          0          0     639872          0          0          0          0          0          0          0
  integral         :          0          0          0          0     774561          0          0     639872          0          0        187          0          0          0     110134
  setppc           :         10         10         10    1174461          0          0          0     639868          0          0      22992          0          0          0          0
  linear           :        210        210         10    1837754          0          0          0     639168          0         75    1532723          0          0          0          0
  nonlinear        :         15         15    2017970    1837679     719417          0          0     639157          0          0    2003655    4963767    4128800          0    1409850
  benders          :          0          0          0          0          0          0          0        140          0          0          0          0          0          0          0
  countsols        :          0          0          0          0          0          0          0        140          0          0          0          0          0          0          0
  components       :          0          0          0          0          0          0          0          0          0          0          0          0          0          0          0
Constraint Timings :  TotalTime  SetupTime   Separate  Propagate     EnfoLP     EnfoPS     EnfoRelax   Check    ResProp    SB-Prop
  benderslp        :       0.26       0.00       0.00       0.00       0.22       0.00       0.00       0.04       0.00       0.00
  integral         :       3.49       0.00       0.00       0.00       3.43       0.00       0.00       0.06       0.00       0.00
  setppc           :       0.43       0.00       0.00       0.22       0.00       0.00       0.00       0.19       0.00       0.02
  linear           :       9.23       0.00       0.00       7.54       0.00       0.00       0.00       1.68       0.00       0.00
  nonlinear        :    1665.45       0.00    1182.45      44.51     419.37       0.00       0.00      18.93       0.00       0.17
  benders          :       0.00       0.00       0.00       0.00       0.00       0.00       0.00       0.00       0.00       0.00
  countsols        :       0.00       0.00       0.00       0.00       0.00       0.00       0.00       0.00       0.00       0.00
  components       :       0.19       0.00       0.00       0.19       0.00       0.00       0.00       0.00       0.00       0.00
Propagators        : #Propagate   #ResProp    Cutoffs    DomReds
  dualfix          :          6          0          0          0
  genvbounds       :     705657          0          0     700074
  nlobbt           :          0          0          0          0
  obbt             :          3          0          0          3
  probing          :          0          0          0          0
  pseudoobj        :    2595777          0          0     550520
  redcost          :    2474839          0          0          0
  rootredcost      :          6          0          0          0
  symmetry         :          0          0          0          0
  vbounds          :     101829          0          0          0
Propagator Timings :  TotalTime  SetupTime   Presolve  Propagate    ResProp    SB-Prop
  dualfix          :       0.00       0.00       0.00       0.00       0.00       0.00
  genvbounds       :       3.98       0.00       0.00       3.97       0.00       0.00
  nlobbt           :       0.00       0.00       0.00       0.00       0.00       0.00
  obbt             :       0.29       0.00       0.00       0.29       0.00       0.00
  probing          :       0.00       0.00       0.00       0.00       0.00       0.00
  pseudoobj        :       4.23       0.00       0.00       4.23       0.00       0.00
  redcost          :       4.81       0.00       0.00       4.81       0.00       0.00
  rootredcost      :       0.64       0.00       0.00       0.64       0.00       0.00
  symmetry         :       0.28       0.00       0.00       0.28       0.00       0.00
  vbounds          :       0.64       0.00       0.00       0.64       0.00       0.00
Conflict Analysis  :       Time      Calls    Success    DomReds  Conflicts   Literals    Reconvs ReconvLits   Dualrays   Nonzeros   LP Iters   (pool size: [--,--])
  propagation      :       0.00          0          0          -          0        0.0          0        0.0          -          -          -
  infeasible LP    :       0.00          0          0          -          0        0.0          0        0.0          0        0.0          0
  bound exceed. LP :       1.60      12691          0          -          0        0.0          0        0.0          0        0.0          0
  strong branching :       0.00          0          0          -          0        0.0          0        0.0          -          -          0
  pseudo solution  :       0.00          0          0          -          0        0.0          0        0.0          -          -          -
  applied globally :       0.00          -          -          0          0        0.0          -          -          0          -          -
  applied locally  :          -          -          -          0          0        0.0          -          -          0          -          -
Separators         :   ExecTime  SetupTime      Calls  RootCalls    Cutoffs    DomReds  FoundCuts ViaPoolAdd  DirectAdd    Applied ViaPoolApp  DirectApp      Conss
  cut pool         :       0.00          -       2703         12          -          -         93         14          -          -          -          -          -    (maximal pool size:         15)
  aggregation      :       0.10       0.00        422          4          0          0         96          3         29         15          0         15          0
  > cmir           :          -          -          -          -          -          -          -          2         22         11          0         11          -
  > flowcover      :          -          -          -          -          -          -          -          1          7          4          0          4          -
  > knapsackcover  :          -          -          -          -          -          -          -          0          0          0          0          0          -
  cgmip            :       0.00       0.00          0          0          0          0          0          0          0          0          0          0          0
  clique           :       0.00       0.00          4          4          0          0          0          0          0          0          0          0          0
  closecuts        :       0.00       0.00          0          0          0          0          0          0          0          0          0          0          0
  convexproj       :       0.00       0.00          0          0          0          0          0          0          0          0          0          0          0
  disjunctive      :       0.00       0.00          0          0          0          0          0          0          0          0          0          0          0
  eccuts           :       0.00       0.00          0          0          0          0          0          0          0          0          0          0          0
  gauge            :       0.00       0.00          0          0          0          0          0          0          0          0          0          0          0
  gomory           :       0.03       0.00        422          4          0          0        127          9        103         13          7          6          0
  > gomorymi       :          -          -          -          -          -          -          -          2        103          7          1          6          -
  > strongcg       :          -          -          -          -          -          -          -          7          0          6          6          0          -
  impliedbounds    :       0.00       0.00        422          4          0          0          0          0          0          0          0          0          0
  interminor       :       0.00       0.00          0          0          0          0          0          0          0          0          0          0          0
  intobj           :       0.00       0.00          0          0          0          0          0          0          0          0          0          0          0
  mcf              :       0.00       0.00          1          1          0          0          0          0          0          0          0          0          0
  minor            :       0.00       0.00          0          0          0          0          0          0          0          0          0          0          0
  mixing           :       0.02       0.00       2781         10          0          0          0          0          0          0          0          0          0
  oddcycle         :       0.00       0.00          0          0          0          0          0          0          0          0          0          0          0
  rapidlearning    :       0.05       0.00          0          0          0          0          0          0          0          0          0          0          0
  rlt              :       0.00       0.00         10         10          0          0          0          0          0          0          0          0          0
  zerohalf         :       0.02       0.00        422          4          0          0          2          2          0          2          2          0          0
Cutselectors       :   ExecTime  SetupTime      Calls  RootCalls   Selected     Forced   Filtered  RootSelec   RootForc   RootFilt 
  hybrid           :       2.51       0.00    1354832          7    4107764          0     835060         89          0         42
Pricers            :   ExecTime  SetupTime      Calls       Vars
  problem variables:       0.00          -          0          0
Branching Rules    :   ExecTime  SetupTime   BranchLP  BranchExt   BranchPS    Cutoffs    DomReds       Cuts      Conss   Children
  allfullstrong    :       0.00       0.00          0          0          0          0          0          0          0          0
  cloud            :       0.00       0.00          0          0          0          0          0          0          0          0
  distribution     :       0.00       0.00          0          0          0          0          0          0          0          0
  fullstrong       :       0.00       0.00          0          0          0          0          0          0          0          0
  inference        :       0.00       0.00          0          0          0          0          0          0          0          0
  leastinf         :       0.00       0.00          0          0          0          0          0          0          0          0
  lookahead        :       0.00       0.00          0          0          0          0          0          0          0          0
  mostinf          :       0.00       0.00          0          0          0          0          0          0          0          0
  multaggr         :       0.00       0.00          0          0          0          0          0          0          0          0
  nodereopt        :       0.00       0.00          0          0          0          0          0          0          0          0
  pscost           :       0.00       0.00          0          0          0          0          0          0          0          0
  random           :       0.00       0.00          0          0          0          0          0          0          0          0
  relpscost        :       3.21       0.00      55144          0          0          0        187          0          0     110134
  vanillafullstrong:       0.00       0.00          0          0          0          0          0          0          0          0
Primal Heuristics  :   ExecTime  SetupTime      Calls      Found       Best
  LP solutions     :       0.00          -          -          0          0
  relax solutions  :       0.00          -          -          0          0
  pseudo solutions :       0.00          -          -          0          0
  strong branching :       0.34          -          -          0          0
  actconsdiving    :       0.00       0.00          0          0          0
  adaptivediving   :       3.67       0.00      28185          0          0
  alns             :       0.39       0.00         30          0          0
  bound            :       0.00       0.00          0          0          0
  clique           :       0.01       0.00          1          0          0
  coefdiving       :       0.00       0.00          0          0          0
  completesol      :       0.00       0.00          0          0          0
  conflictdiving   :       0.08       0.00          0          0          0
  crossover        :     106.52       0.00         14         14          0
  dins             :       0.00       0.00          0          0          0
  distributiondivin:      28.04       0.00       1781          0          0
  dps              :       0.00       0.00          0          0          0
  dualval          :       0.00       0.00          0          0          0
  farkasdiving     :       0.03       0.00          0          0          0
  feaspump         :       0.02       0.00          0          0          0
  fixandinfer      :       0.00       0.00          0          0          0
  fracdiving       :       6.46       0.00      67784          0          0
  gins             :     341.15       0.00         79         69          0
  guideddiving     :       5.82       0.00      69824          0          0
  indicator        :       0.44       0.00          0          0          0
  indicatordiving  :       0.00       0.00          0          0          0
  intdiving        :       0.00       0.00          0          0          0
  intshifting      :       0.06       0.00         85          0          0
  linesearchdiving :       5.12       0.00      69620          0          0
  localbranching   :       0.00       0.00          0          0          0
  locks            :       0.00       0.00          1          0          0
  lpface           :       0.30       0.00          0          0          0
  mpec             :       2.69       0.00          1          1          1
  multistart       :       0.00       0.00          0          0          0
  mutation         :       0.00       0.00          0          0          0
  nlpdiving        :       1.16       0.00          8          4          0
  objpscostdiving  :       0.63       0.00        892          0          0
  octane           :       0.00       0.00          0          0          0
  ofins            :       0.14       0.00          0          0          0
  oneopt           :       0.32       0.00          8          0          0
  padm             :       0.00       0.00          0          0          0
  proximity        :       0.00       0.00          0          0          0
  pscostdiving     :       1.29       0.00       1781          0          0
  randrounding     :       1.07       0.00      11517          0          0
  rens             :       0.01       0.00          1          0          0
  reoptsols        :       0.00       0.00          0          0          0
  repair           :       0.00       0.00          0          0          0
  rins             :      65.26       0.00         66         15          1
  rootsoldiving    :       0.79       0.00        891          0          0
  rounding         :       0.92       0.00       5588          0          0
  shiftandpropagate:       0.00       0.00          1          0          0
  shifting         :       0.15       0.00       1637          0          0
  simplerounding   :       0.50       0.00          0          0          0
  subnlp           :      67.12       0.00        277         18          5
  trivial          :       0.00       0.00          2          0          0
  trivialnegation  :       0.00       0.00          0          0          0
  trustregion      :       0.00       0.00          0          0          0
  trysol           :       0.31       0.00          1          1          1
  twoopt           :       0.00       0.00          0          0          0
  undercover       :       0.00       0.00          1          0          0
  vbounds          :       0.00       0.00          0          0          0
  veclendiving     :       4.84       0.00      68473          0          0
  zeroobj          :       0.00       0.00          0          0          0
  zirounding       :       0.25       0.00       1000          0          0
  other solutions  :          -          -          -          0          -
Expressions        :   #IntEval  IntEvalTi   #RevProp  RevPropTi    DomReds    Cutoffs  #Estimate  EstimTime  Branching  #Simplify SimplifyTi Simplified
  pow              :          0       0.00          0       0.00          0          0          0       0.00          0          0       0.00          0
  prod             :   18266997       4.54     369215       0.24        172          0  198033728    1148.62   51665007        243       0.00        132
  sum              :    1507114       0.75    1506985       1.26     231719          0         15       0.00          0        257       0.00        113
  var              :   11812143       0.75          0       0.00          0          0          0       0.00          0        441       0.00         45
  varidx           :          0       0.00          0       0.00          0          0          0       0.00          0          0       0.00          0
Nlhdlrs            :    Detects  DetectAll DetectTime   #IntEval  IntEvalTi   #RevProp  RevPropTi    DomReds    Cutoffs   #Enforce   EnfoTime       Cuts  Branching
  soc              :          0          0       0.00          0       0.00          0       0.00          0          0          0       0.00          0          0
  convex           :          0          0       0.00          0       0.00          0       0.00          0          0          0       0.00          0          0
  concave          :          0          0       0.00          0       0.00          0       0.00          0          0          0       0.00          0          0
  signomial        :          0          0       0.00          0       0.00          0       0.00          0          0          0       0.00          0          0
  quotient         :          0          0       0.00          0       0.00          0       0.00          0          0          0       0.00          0          0
  quadratic        :          7         49       0.00    2114327       7.18    2114306       9.76     124007          0          0       0.00          0          0
  default          :        263       1547       0.00   19774131       6.61    1876611       3.03     231891          0  198033632    1349.61    4963767          0
  bilinear         :         63         63       0.00    3461544       0.47     369027       0.80          0          0  126578725       8.49          0          0
  perspective      :          0          0       0.00          0       0.00          0       0.00          0          0          0       0.00          0          0
LP                 :       Time      Calls Iterations  Iter/call   Iter/sec  Time-0-It Calls-0-It    ItLimit
  primal LP        :     186.27     381754          0       0.00       0.00     186.22     381754
  dual LP          :     823.68    2142556   16711422       9.63   20288.85     110.86     406992
  lex dual LP      :       0.00          0          0       0.00          -
  barrier LP       :       0.00          0          0       0.00          -       0.00          0
  resolve instable :       0.00          0          0       0.00          -
  diving/probing LP:       4.03       7542      20401       2.70    5059.45
  strong branching :       1.30       2667      17078       6.40   13179.95          -          -         27
    (at root node) :          -          0          0       0.00          -
  conflict analysis:       0.00          0          0       0.00          -
NLP relaxation     :
  solve time       :       1.11 (8 calls)
  convexity        :  nonconvex (220 linear rows, 0 convex ineq., 0 nonconvex ineq., 15 nonlinear eq. or two-sided ineq.)
NLP Solvers        :  #Problems  ProblemTi    #Solves  SolveTime      #Iter  Time/Iter      #Okay #TimeLimit #IterLimit #LObjLimit #Interrupt  #NumError #EvalError  #OutOfMem #LicenseEr #OtherTerm   #GlobOpt    #LocOpt  #Feasible #LocInfeas #GlobInfea #Unbounded   #Unknown
  ipopt            :        280       2.40        295      67.38      15578       0.00        281          0         14          0          0          0          0          0          0          0          0        273         14          1          0          0          7
B&B Tree           :
  number of runs   :          1
  nodes            :     773159 (759992 internal, 13167 leaves)
  feasible leaves  :          0
  infeas. leaves   :          0
  objective leaves :      13166
  nodes (total)    :     773159 (759992 internal, 13167 leaves)
  nodes left       :     746825
  max depth        :         45
  max depth (total):         45
  backtracks       :     136478 (17.7%)
  early backtracks :          0 (0.0%)
  nodes exc. ref.  :          0 (0.0%)
  delayed cutoffs  :          0
  repropagations   :          1 (0 domain reductions, 0 cutoffs)
  avg switch length:       7.58
  switching time   :     228.62
Root Node          :
  First LP value   : +0.00000000000000e+00
  First LP Iters   :          7 (8557.46 Iter/sec)
  First LP Time    :       0.00
  Final Dual Bound : +0.00000000000000e+00
  Final Root Iters :        311
  Root LP Estimate : +1.81738614531153e+01
Solution           :
  Solutions found  :        122 (8 improvements)
  First Solution   : +1.26980314455400e+02   (in run 1, after 1 nodes, 0.04 seconds, depth 10, found by <trysol>)
  Gap First Sol.   :   infinite
  Gap Last Sol.    :     250.98 %
  Primal Bound     : +1.23024940454874e+01   (in run 1, after 219459 nodes, 1201.43 seconds, depth 27, found by <adaptivediving>)
  Dual Bound       : +4.43352078227471e+00
  Gap              :     177.49 %
Integrals          :      Total       Avg%
  primal-dual      :  254479.96      70.69
  primal-ref       :          -          - (not evaluated)
  dual-ref         :          -          - (not evaluated)
